468 9 224 431 150 474 0 574 264 493
607 357 154 684 293 493 739 0 582 224
190 492 8 468 662 153 550 782 751 866
429 655 441 617 70 558 152 277 802 761
21 293 310 381 205 687 112 757 607 431
684 310 0 18 761 76 9 866 341 751
788 185 829 76 0 283 370 469 496 655
729 90 788 296 381 829 469 185 687 574
341 441 429 236 470 448 754 655 296 606
0 757 93 168 563 236 262 724 437 344
